set VV := 0 1 2 3 4 5 6 7 8 9 10 11 12 13 14 15 16 ;
set VS := 0 1 2 3 4 5 6 7 8 9 10 11 12 13 14 15 16 17 18 19 20 21 22 23 24 25 26 27 28 29 30 31 32 33 34 35 36 37 ;
param cv := 
0 15
1 13
2 11
3 18
4 17
5 19
6 21
7 25
8 22
9 21
10 16
11 17
12 24
13 17
14 14
15 25
16 23
;
param cs := 
0 35
1 34
2 26
3 35
4 23
5 23
6 21
7 26
8 38
9 25
10 27
11 34
12 24
13 28
14 31
15 35
16 33
17 35
18 26
19 38
20 25
21 26
22 21
23 36
24 21
25 25
26 22
27 31
28 39
29 35
30 35
31 26
32 35
33 28
34 22
35 35
36 26
37 40
;
param bv:	 0 1 2 3 4 5 6 7 8 9 10 11 12 13 14 15 16 := 
		0 0 0 0 0 22 15 11 18 0 17 0 0 20 0 0 0 0 
		1 0 0 0 0 15 0 0 0 0 0 17 16 0 0 0 0 20 
		2 0 0 0 0 0 0 0 14 0 0 0 0 0 0 0 18 0 
		3 0 0 0 0 0 0 0 0 21 0 19 10 0 0 0 12 0 
		4 0 0 0 0 0 0 0 0 0 0 0 0 0 0 0 0 0 
		5 0 0 0 0 0 0 0 0 20 19 0 0 23 0 14 0 0 
		6 0 0 0 0 0 0 0 0 0 0 0 0 0 0 18 0 0 
		7 0 0 0 0 0 0 0 0 0 0 0 0 0 22 0 0 13 
		8 0 0 0 0 0 0 0 0 0 0 0 17 0 20 0 0 0 
		9 0 0 0 0 0 0 0 0 0 0 0 0 0 0 0 0 0 
		10 0 0 0 0 0 0 0 0 0 0 0 0 0 0 0 0 0 
		11 0 0 0 0 0 0 0 0 0 0 0 0 0 0 0 0 0 
		12 0 0 0 0 0 0 0 0 0 0 0 0 0 0 0 0 0 
		13 0 0 0 0 0 0 0 0 0 0 0 0 0 0 0 20 0 
		14 0 0 0 0 0 0 0 0 0 0 0 0 0 0 0 0 0 
		15 0 0 0 0 0 0 0 0 0 0 0 0 0 0 0 0 0 
		16 0 0 0 0 0 0 0 0 0 0 0 0 0 0 0 0 0 
;
param bs:	 0 1 2 3 4 5 6 7 8 9 10 11 12 13 14 15 16 17 18 19 20 21 22 23 24 25 26 27 28 29 30 31 32 33 34 35 36 37 := 
		0 0 24 0 0 0 0 25 0 0 0 27 0 0 0 0 0 0 0 0 0 0 0 23 36 0 0 0 0 37 0 0 0 0 0 0 0 0 0 
		1 24 0 0 0 0 0 34 0 0 0 0 0 0 40 0 0 0 0 0 0 0 0 0 0 0 0 0 0 0 0 0 0 0 0 0 0 0 21 
		2 0 0 0 0 0 0 33 0 0 0 0 34 0 29 0 0 30 30 0 0 0 0 0 0 0 0 0 0 0 0 0 0 0 0 0 0 0 27 
		3 0 0 0 0 0 40 0 0 0 36 0 0 31 0 0 0 0 0 0 0 0 36 0 0 0 0 0 0 0 0 0 0 0 0 0 0 0 0 
		4 0 0 0 0 0 0 0 0 0 0 0 0 0 0 0 0 0 0 0 0 0 0 34 0 23 0 0 29 0 0 0 0 0 0 0 0 36 0 
		5 0 0 0 40 0 0 0 0 0 0 0 25 30 0 0 0 0 0 0 0 0 0 0 35 0 0 0 0 0 0 0 0 0 0 0 0 0 0 
		6 25 34 33 0 0 0 0 0 0 0 25 0 0 0 0 0 0 0 0 0 0 0 0 0 0 0 0 0 0 0 0 0 0 0 0 40 0 0 
		7 0 0 0 0 0 0 0 0 0 0 0 0 0 0 0 30 0 0 0 0 0 0 28 0 0 0 24 0 20 0 0 0 0 0 0 0 0 0 
		8 0 0 0 0 0 0 0 0 0 0 0 0 0 0 25 39 0 34 0 0 0 0 0 0 0 0 36 0 0 0 0 0 0 0 0 0 0 0 
		9 0 0 0 36 0 0 0 0 0 0 0 0 0 0 0 0 0 0 0 0 0 0 0 0 0 30 0 22 39 0 0 0 0 0 0 0 0 0 
		10 27 0 0 0 0 0 25 0 0 0 0 0 0 0 0 0 0 32 27 0 0 0 0 0 0 30 0 23 0 29 36 0 0 21 0 0 0 0 
		11 0 0 34 0 0 25 0 0 0 0 0 0 0 0 0 0 37 0 0 0 0 36 0 0 0 0 0 0 0 0 0 0 0 40 0 0 39 0 
		12 0 0 0 31 0 30 0 0 0 0 0 0 0 0 0 0 0 0 21 0 0 0 0 0 0 0 0 0 0 0 0 0 0 0 0 0 0 0 
		13 0 40 29 0 0 0 0 0 0 0 0 0 0 0 0 0 0 0 0 0 0 0 0 0 0 0 0 0 0 0 0 0 0 0 0 0 36 24 
		14 0 0 0 0 0 0 0 0 25 0 0 0 0 0 0 0 0 24 0 29 0 0 0 0 0 0 0 0 0 0 0 0 0 0 35 0 0 0 
		15 0 0 0 0 0 0 0 30 39 0 0 0 0 0 0 0 0 0 0 33 25 0 0 0 0 0 30 0 0 0 0 0 0 0 0 0 0 0 
		16 0 0 30 0 0 0 0 0 0 0 0 37 0 0 0 0 0 0 0 0 0 0 0 31 36 0 0 0 0 0 0 0 0 0 0 0 0 0 
		17 0 0 30 0 0 0 0 0 34 0 32 0 0 0 24 0 0 0 0 0 0 28 0 33 0 36 0 0 0 0 0 0 37 0 0 0 0 0 
		18 0 0 0 0 0 0 0 0 0 0 27 0 21 0 0 0 0 0 0 0 0 39 32 0 0 0 0 0 0 0 0 0 0 0 0 0 0 0 
		19 0 0 0 0 0 0 0 0 0 0 0 0 0 0 29 33 0 0 0 0 29 0 0 0 0 0 0 0 28 24 0 0 0 0 0 0 0 0 
		20 0 0 0 0 0 0 0 0 0 0 0 0 0 0 0 25 0 0 0 29 0 0 0 0 0 0 0 0 0 22 29 0 0 0 0 0 0 0 
		21 0 0 0 36 0 0 0 0 0 0 0 36 0 0 0 0 0 28 39 0 0 0 0 0 0 0 40 0 30 40 0 30 0 0 0 0 0 0 
		22 23 0 0 0 34 0 0 28 0 0 0 0 0 0 0 0 0 0 32 0 0 0 0 0 0 20 0 0 0 0 0 0 25 0 0 0 33 0 
		23 36 0 0 0 0 35 0 0 0 0 0 0 0 0 0 0 31 33 0 0 0 0 0 0 0 0 0 0 0 0 0 0 0 0 32 0 0 0 
		24 0 0 0 0 23 0 0 0 0 0 0 0 0 0 0 0 36 0 0 0 0 0 0 0 0 0 0 0 23 0 27 0 0 0 0 0 27 0 
		25 0 0 0 0 0 0 0 0 0 30 30 0 0 0 0 0 0 36 0 0 0 0 20 0 0 0 0 0 0 0 0 0 0 0 0 0 32 0 
		26 0 0 0 0 0 0 0 24 36 0 0 0 0 0 0 30 0 0 0 0 0 40 0 0 0 0 0 0 0 35 0 0 0 0 0 0 0 0 
		27 0 0 0 0 29 0 0 0 0 22 23 0 0 0 0 0 0 0 0 0 0 0 0 0 0 0 0 0 0 0 0 0 0 0 0 0 0 0 
		28 37 0 0 0 0 0 0 20 0 39 0 0 0 0 0 0 0 0 0 28 0 30 0 0 23 0 0 0 0 0 0 0 0 0 0 0 0 0 
		29 0 0 0 0 0 0 0 0 0 0 29 0 0 0 0 0 0 0 0 24 22 40 0 0 0 0 35 0 0 0 0 0 29 0 0 0 0 0 
		30 0 0 0 0 0 0 0 0 0 0 36 0 0 0 0 0 0 0 0 0 29 0 0 0 27 0 0 0 0 0 0 0 0 0 34 0 0 23 
		31 0 0 0 0 0 0 0 0 0 0 0 0 0 0 0 0 0 0 0 0 0 30 0 0 0 0 0 0 0 0 0 0 0 0 0 0 0 0 
		32 0 0 0 0 0 0 0 0 0 0 0 0 0 0 0 0 0 37 0 0 0 0 25 0 0 0 0 0 0 29 0 0 0 0 0 0 0 0 
		33 0 0 0 0 0 0 0 0 0 0 21 40 0 0 0 0 0 0 0 0 0 0 0 0 0 0 0 0 0 0 0 0 0 0 0 0 0 0 
		34 0 0 0 0 0 0 0 0 0 0 0 0 0 0 35 0 0 0 0 0 0 0 0 32 0 0 0 0 0 0 34 0 0 0 0 0 0 0 
		35 0 0 0 0 0 0 40 0 0 0 0 0 0 0 0 0 0 0 0 0 0 0 0 0 0 0 0 0 0 0 0 0 0 0 0 0 0 0 
		36 0 0 0 0 36 0 0 0 0 0 0 39 0 36 0 0 0 0 0 0 0 0 33 0 27 32 0 0 0 0 0 0 0 0 0 0 0 39 
		37 0 21 27 0 0 0 0 0 0 0 0 0 0 24 0 0 0 0 0 0 0 0 0 0 0 0 0 0 0 0 23 0 0 0 0 0 39 0 
;
